% demand
num_movements = 38;
loading_factor = [850, 1600, 1650, 1000, 1850, 1650, 2000, 800, 1900, 950, 1350, 1950, 1000, 900, 1450, 1900, 1450, 1750, 950, 1900, 900, 1200, 1650, 1200, 1850, 900, 1000, 1800, 850, 1900, 1650, 1850, 1150, 1350, 1750, 1900, 1750, 1100];
pickup_time = [0, 1, 1, 1, 1, 1, 1, 1, 3, 3, 3, 3, 5, 6, 7, 7, 7, 7, 8, 9, 9, 9, 9, 9, 10, 10, 10, 10, 11, 11, 11, 11, 11, 12, 13, 13, 13, 13];
delivery_time = [1, 3, 3, 7, 5, 3, 4, 3, 9, 6, 5, 4, 6, 10, 9, 9, 11, 9, 9, 10, 10, 10, 10, 10, 11, 11, 11, 11, 13, 12, 14, 13, 14, 13, 14, 14, 14, 14];

% transporter definition
total_capacity = 11000;
num_decks = 4;
capacity = [3000, 3000, 1000, 4000];

% ways out of decks
num_ways_out = 2;
paths_out = array3d(decks, ways_out, decks, [
% ways out of deck d1
2, 4, 0, 0, 3, 4, 0, 0, 

% ways out of deck d2
4, 0, 0, 0, 0, 0, 0, 0,	

% ways out of deck d3
4, 0, 0, 0, 0, 0, 0, 0,	

% ways out of deck d4
0, 0, 0, 0,	0, 0, 0, 0,	

]);

